
Gurobi 10.0.2 (linux64) logging started Fri Jan 26 13:42:40 2024

Set parameter LogFile to value "../results/logs/log_CA-HepPh_4_250_2024_01_26_13_42.log"
Set parameter LazyConstraints to value 1
Gurobi Optimizer version 10.0.2 build v10.0.2rc0 (linux64)

CPU model: Intel(R) Core(TM) i7-4930K CPU @ 3.40GHz, instruction set [SSE2|AVX]
Thread count: 6 physical cores, 12 logical processors, using up to 12 threads

Optimize a model with 24013 rows, 24012 columns and 521980 nonzeros
Model fingerprint: 0xbf92ce11
Variable types: 0 continuous, 24012 integer (24012 binary)
Coefficient statistics:
  Matrix range     [1e+00, 4e+00]
  Objective range  [1e+00, 1e+00]
  Bounds range     [1e+00, 1e+00]
  RHS range        [1e+00, 2e+02]
Found heuristic solution: objective -0.0000000
Presolve removed 9562 rows and 4781 columns
Presolve time: 0.98s
Presolved: 14451 rows, 19231 columns, 481533 nonzeros
Variable types: 0 continuous, 19231 integer (19231 binary)
Root relaxation presolved: 14451 rows, 19231 columns, 481533 nonzeros

Deterministic concurrent LP optimizer: primal and dual simplex
Showing first log only...

Concurrent spin time: 0.00s

Solved with dual simplex

Use crossover to convert LP symmetric solution to basic solution...

Root relaxation: objective 7.114500e+03, 1259 iterations, 0.26 seconds (0.22 work units)

    Nodes    |    Current Node    |     Objective Bounds      |     Work
 Expl Unexpl |  Obj  Depth IntInf | Incumbent    BestBd   Gap | It/Node Time

     0     0 7114.50000    0  305   -0.00000 7114.50000      -     -    1s
H    0     0                    6926.0000000 7114.50000  2.72%     -    1s
H    0     0                    6938.0000000 7114.50000  2.54%     -    1s
H    0     0                    6941.0000000 7114.50000  2.50%     -    1s
     0     0 7053.11637    0  272 6941.00000 7053.11637  1.62%     -    2s
H    0     0                    6959.0000000 7053.11637  1.35%     -    2s
H    0     0                    6978.0000000 7053.11637  1.08%     -    2s
     0     0 7052.15407    0  264 6978.00000 7052.15407  1.06%     -    3s
     0     0 6999.95408    0  188 6978.00000 6999.95408  0.31%     -    4s
     0     0 6999.69069    0  177 6978.00000 6999.69069  0.31%     -    4s
     0     0 6981.49167    0   46 6978.00000 6981.49167  0.05%     -    5s
     0     0 6979.42857    0   42 6978.00000 6979.42857  0.02%     -    6s
     0     0 6979.38462    0   38 6978.00000 6979.38462  0.02%     -    6s
     0     0 6979.23333    0   21 6978.00000 6979.23333  0.02%     -    7s

Cutting planes:
  Gomory: 168
  Cover: 349
  MIR: 248
  StrongCG: 10
  GUB cover: 558
  Zero half: 95
  RLT: 39
  Lazy constraints: 5

Explored 1 nodes (3349 simplex iterations) in 7.82 seconds (3.53 work units)
Thread count was 12 (of 12 available processors)

Solution count 6: 6978 6959 6941 ... -0

Optimal solution found (tolerance 0.00e+00)
Best objective 6.978000000000e+03, best bound 6.978000000000e+03, gap 0.0000%

User-callback calls 906, time in user-callback 4.68 sec
